
Gurobi 8.1.1 (win64, Python) logging started 10/20/19 09:53:10

Academic license - for non-commercial use only

Gurobi 8.1.1 (win64, Python) logging started 10/20/19 11:35:30

Academic license - for non-commercial use only

Gurobi 8.1.1 (win64, Python) logging started 10/20/19 12:27:24

Academic license - for non-commercial use only

Gurobi 8.1.1 (win64, Python) logging started 10/20/19 13:04:33

Academic license - for non-commercial use only

Gurobi 8.1.1 (win64, Python) logging started 10/20/19 21:11:59

Academic license - for non-commercial use only
